c Sudoku solution
p cnf 729 0
146 0
175 0
191 0
217 0
233 0
265 0
348 0
369 0
396 0
226 0
452 0
515 0
532 0
619 0
627 0
643 0
666 0
755 0
445 0
777 0
811 0
884 0
938 0
837 0
335 0
321 0
957 0
856 0
547 0
559 0
167 0
242 0
251 0
387 0
849 0
658 0
497 0
986 0
685 0
576 0
993 0
895 0
925 0
979 0
781 0
744 0
941 0
962 0
914 0
312 0
118 0
182 0
373 0
153 0
354 0
489 0
561 0
464 0
583 0
288 0
274 0
299 0
129 0
134 0
524 0
631 0
436 0
413 0
428 0
471 0
672 0
694 0
598 0
716 0
739 0
878 0
792 0
723 0
822 0
768 0
863 0
